
Gurobi 9.0.1 (linux64) logging started Thu Apr 30 22:49:37 2020

Gurobi Optimizer version 9.0.1 build v9.0.1rc0 (linux64)
Optimize a model with 32222 rows, 27380 columns and 603960 nonzeros
Model fingerprint: 0xcaea3951
Variable types: 0 continuous, 27380 integer (27342 binary)
Coefficient statistics:
  Matrix range     [1e+00, 2e+01]
  Objective range  [2e+00, 1e+02]
  Bounds range     [1e+00, 1e+00]
  RHS range        [1e+00, 1e+00]

User MIP start produced solution with objective 1132 (0.90s)
Loaded user MIP start with objective 1132

Presolve removed 15667 rows and 9423 columns (presolve time = 5s) ...
Presolve removed 15708 rows and 9482 columns (presolve time = 10s) ...
Presolve removed 15708 rows and 9482 columns
Presolve time: 10.07s
Presolved: 16514 rows, 17898 columns, 496680 nonzeros
Variable types: 0 continuous, 17898 integer (17898 binary)

Root simplex log...

Iteration    Objective       Primal Inf.    Dual Inf.      Time
       0    0.0000000e+00   1.940000e+02   0.000000e+00     13s
    1840    5.2583340e+02   2.014981e+03   0.000000e+00     15s
    3440    5.3073341e+02   8.473003e+03   0.000000e+00     20s
    4960    5.3438412e+02   5.926040e+03   0.000000e+00     25s
    6480    5.3663145e+02   6.780117e+03   0.000000e+00     30s
    7840    5.3824323e+02   8.454623e+03   0.000000e+00     35s
    9600    5.3959426e+02   3.094519e+03   0.000000e+00     40s
   10969    5.4041825e+02   3.132386e+03   0.000000e+00     45s
   12089    5.4160551e+02   1.775022e+03   0.000000e+00     50s
   13320    5.4328631e+02   6.840175e+02   0.000000e+00     55s
   14579    5.4478863e+02   4.857336e+03   0.000000e+00     60s
   15886    5.4605845e+02   1.917384e+02   0.000000e+00     65s
   16868    5.4678072e+02   0.000000e+00   0.000000e+00     70s

Root relaxation: objective 5.467807e+02, 16868 iterations, 58.37 seconds
Total elapsed time = 70.23s

    Nodes    |    Current Node    |     Objective Bounds      |     Work
 Expl Unexpl |  Obj  Depth IntInf | Incumbent    BestBd   Gap | It/Node Time

     0     0  546.78072    0 1272 1132.00000  546.78072  51.7%     -   76s
     0     0  575.81744    0 1373 1132.00000  575.81744  49.1%     -  138s
     0     0  576.38303    0 1330 1132.00000  576.38303  49.1%     -  151s
     0     0  576.57770    0 1322 1132.00000  576.57770  49.1%     -  157s
     0     0  576.58197    0 1333 1132.00000  576.58197  49.1%     -  159s
     0     0  585.02246    0 1389 1132.00000  585.02246  48.3%     -  201s
     0     0  585.10837    0 1394 1132.00000  585.10837  48.3%     -  209s
     0     0  585.11081    0 1405 1132.00000  585.11081  48.3%     -  211s
     0     0  597.47145    0 1345 1132.00000  597.47145  47.2%     -  283s
     0     0  598.25841    0 1325 1132.00000  598.25841  47.2%     -  300s
     0     0  598.36663    0 1390 1132.00000  598.36663  47.1%     -  305s
     0     0  598.37017    0 1328 1132.00000  598.37017  47.1%     -  307s
     0     0  605.60470    0 1301 1132.00000  605.60470  46.5%     -  370s
     0     0  605.70317    0 1323 1132.00000  605.70317  46.5%     -  381s
     0     0  605.80224    0 1290 1132.00000  605.80224  46.5%     -  387s
     0     0  605.80224    0 1291 1132.00000  605.80224  46.5%     -  388s
     0     0  606.74419    0 1373 1132.00000  606.74419  46.4%     -  409s
     0     0  606.89627    0 1345 1132.00000  606.89627  46.4%     -  423s
     0     0  606.90614    0 1352 1132.00000  606.90614  46.4%     -  425s
     0     0  608.04022    0 1419 1132.00000  608.04022  46.3%     -  449s
     0     0  608.09396    0 1447 1132.00000  608.09396  46.3%     -  457s
     0     0  608.09568    0 1428 1132.00000  608.09568  46.3%     -  458s
     0     0  608.35880    0 1445 1132.00000  608.35880  46.3%     -  469s
     0     0  608.39977    0 1427 1132.00000  608.39977  46.3%     -  474s
     0     0  608.39977    0 1427 1132.00000  608.39977  46.3%     -  476s
     0     0  609.21282    0 1482 1132.00000  609.21282  46.2%     -  492s
     0     0  609.22690    0 1476 1132.00000  609.22690  46.2%     -  503s
     0     0  609.22705    0 1474 1132.00000  609.22705  46.2%     -  504s
     0     0  609.75997    0 1444 1132.00000  609.75997  46.1%     -  520s
     0     0  609.83308    0 1438 1132.00000  609.83308  46.1%     -  526s
     0     0  609.84499    0 1471 1132.00000  609.84499  46.1%     -  528s
     0     0  610.85467    0 1481 1132.00000  610.85467  46.0%     -  547s
     0     0  610.97062    0 1468 1132.00000  610.97062  46.0%     -  554s
     0     0  610.97657    0 1469 1132.00000  610.97657  46.0%     -  557s
     0     0  611.35929    0 1474 1132.00000  611.35929  46.0%     -  571s
     0     0  611.39085    0 1467 1132.00000  611.39085  46.0%     -  577s
     0     0  611.41193    0 1476 1132.00000  611.41193  46.0%     -  580s
     0     0  611.41405    0 1500 1132.00000  611.41405  46.0%     -  582s
     0     0  611.53051    0 1469 1132.00000  611.53051  46.0%     -  589s
     0     0  611.54575    0 1468 1132.00000  611.54575  46.0%     -  594s
     0     0  611.55306    0 1461 1132.00000  611.55306  46.0%     -  596s
     0     0  611.71642    0 1499 1132.00000  611.71642  46.0%     -  605s
     0     0  611.72445    0 1486 1132.00000  611.72445  46.0%     -  610s
     0     0  611.91836    0 1498 1132.00000  611.91836  45.9%     -  619s
     0     0  611.93439    0 1509 1132.00000  611.93439  45.9%     -  624s
     0     0  611.95198    0 1489 1132.00000  611.95198  45.9%     -  628s
     0     0  611.95507    0 1492 1132.00000  611.95507  45.9%     -  629s
     0     0  612.21510    0 1500 1132.00000  612.21510  45.9%     -  643s
     0     0  612.26645    0 1486 1132.00000  612.26645  45.9%     -  660s
     0     0  612.29854    0 1497 1132.00000  612.29854  45.9%     -  664s
     0     0  612.30295    0 1498 1132.00000  612.30295  45.9%     -  667s
     0     0  612.45135    0 1493 1132.00000  612.45135  45.9%     -  677s
     0     0  612.48089    0 1479 1132.00000  612.48089  45.9%     -  683s
     0     0  612.48478    0 1474 1132.00000  612.48478  45.9%     -  685s
     0     0  612.55202    0 1513 1132.00000  612.55202  45.9%     -  693s
     0     0  612.56065    0 1498 1132.00000  612.56065  45.9%     -  697s
     0     0  612.89810    0 1537 1132.00000  612.89810  45.9%     -  712s
     0     0  612.90534    0 1539 1132.00000  612.90534  45.9%     -  718s
     0     0  613.04521    0 1544 1132.00000  613.04521  45.8%     -  730s
     0     0  613.06200    0 1533 1132.00000  613.06200  45.8%     -  737s
     0     0  613.07062    0 1535 1132.00000  613.07062  45.8%     -  740s
     0     0  613.33487    0 1536 1132.00000  613.33487  45.8%     -  757s
     0     0  613.38464    0 1536 1132.00000  613.38464  45.8%     -  763s
     0     0  613.40634    0 1507 1132.00000  613.40634  45.8%     -  766s
     0     0  613.41130    0 1507 1132.00000  613.41130  45.8%     -  769s
     0     0  613.62748    0 1559 1132.00000  613.62748  45.8%     -  782s
     0     0  613.66706    0 1559 1132.00000  613.66706  45.8%     -  788s
     0     0  613.66937    0 1558 1132.00000  613.66937  45.8%     -  791s
     0     0  613.76980    0 1549 1132.00000  613.76980  45.8%     -  801s
     0     0  614.00574    0 1562 1132.00000  614.00574  45.8%     -  813s
     0     0  614.03745    0 1535 1132.00000  614.03745  45.8%     -  816s
     0     0  614.05325    0 1526 1132.00000  614.05325  45.8%     -  820s
     0     0  614.15838    0 1521 1132.00000  614.15838  45.7%     -  830s
     0     0  614.16068    0 1520 1132.00000  614.16068  45.7%     -  836s
     0     0  614.30600    0 1568 1132.00000  614.30600  45.7%     -  847s
     0     0  614.31516    0 1544 1132.00000  614.31516  45.7%     -  853s
     0     0  614.41999    0 1526 1132.00000  614.41999  45.7%     -  866s
     0     0  614.41999    0 1516 1132.00000  614.41999  45.7%     -  880s
     0     2  614.42786    0 1516 1132.00000  614.42786  45.7%     - 1042s
     1     3  615.02911    1 1569 1132.00000  614.42786  45.7%  3584 1060s
     2     4  617.24974    1 1397 1132.00000  615.02949  45.7%  5418 1106s
     3     5  615.81791    2 1534 1132.00000  615.03603  45.7%  4824 1131s
     4     6  621.80642    2 1401 1132.00000  615.81791  45.6%  6987 1216s
     5     7  616.58984    3 1489 1132.00000  615.81791  45.6%  6401 1243s
     6     8  649.70193    3 1289 1132.00000  616.58987  45.5% 11200 1456s
     7     9  617.26286    4 1518 1132.00000  616.58987  45.5% 10028 1476s
     8    10  621.63567    4 1433 1132.00000  617.24974  45.5%  9980 1538s
     9    11  617.43324    5 1518 1132.00000  617.24974  45.5%  9007 1545s
    10    12  641.37944    5 1311 1132.00000  617.24974  45.5% 10196 1640s
    11    13  617.52707    6 1503 1132.00000  617.24974  45.5%  9446 1649s
    12    14  637.55149    7 1249 1132.00000  617.24974  45.5% 11116 1804s
    13    15  617.56754    7 1481 1132.00000  617.24974  45.5% 10299 1807s
    14    16  637.24022    8 1333 1132.00000  617.24974  45.5% 11703 1970s
    15    17  617.80432    8 1478 1132.00000  617.24974  45.5% 11078 1980s
    17    19  642.75908   10 1357 1132.00000  617.24974  45.5% 10938 2065s
    18    20  617.94416   10 1478 1132.00000  617.24974  45.5% 10374 2070s
    21    23  636.78528   13 1277 1132.00000  617.24974  45.5%  9930 2193s
    22    24  618.08915   13 1431 1132.00000  617.24974  45.5%  9536 2199s
    23    25  641.35092   14 1282 1132.00000  617.24974  45.5% 10011 2298s
    24    26  618.32345   14 1451 1132.00000  617.24974  45.5%  9648 2306s
    25    27  618.71002   15 1456 1132.00000  617.24974  45.5%  9327 2315s
    26    28  626.45830   16 1314 1132.00000  617.24974  45.5%  9538 2398s
    27    29  619.05759   16 1440 1132.00000  617.24974  45.5%  9253 2417s
    28    30  620.84770   17 1480 1132.00000  617.24974  45.5%  9133 2453s
    29    31  631.15818   17 1298 1132.00000  617.24974  45.5%  9345 2539s
    30    32  620.89805   18 1509 1132.00000  617.24974  45.5%  9057 2543s
    31    33  641.94149   18 1304 1132.00000  617.24974  45.5%  9484 2632s
    32    34  621.33087   19 1433 1132.00000  617.24974  45.5%  9248 2645s
    33    35  634.27271   19 1304 1132.00000  617.24974  45.5%  9453 2733s
    34    36  621.49140   20 1424 1132.00000  617.24974  45.5%  9198 2738s
    35    37  644.83731   20 1211 1132.00000  617.24974  45.5%  9691 2888s
    36    38  621.88635   21 1440 1132.00000  617.24974  45.5%  9478 2897s
    37    39  642.17018   21 1266 1132.00000  617.24974  45.5%  9767 2974s
    38    40  622.25982   22 1502 1132.00000  617.24974  45.5%  9553 2982s
    39    41  650.69810   23 1276 1132.00000  617.24974  45.5% 10196 3129s
    40    42  622.53608   23 1527 1132.00000  617.24974  45.5% 10017 3140s
    41    43  635.10672   24 1282 1132.00000  617.24974  45.5% 10161 3200s
    42    44  622.91041   24 1526 1132.00000  617.24974  45.5%  9962 3209s
    43    45  639.48067   25 1304 1132.00000  617.24974  45.5% 10450 3354s
    44    46  623.06707   25 1485 1132.00000  617.24974  45.5% 10245 3361s
    45    47  642.16900   26 1274 1132.00000  617.24974  45.5% 10406 3434s
    46    48  623.12644   26 1487 1132.00000  617.24974  45.5% 10195 3438s
    47    49  643.70096   27 1258 1132.00000  617.24974  45.5% 10649 3600s

Cutting planes:
  Gomory: 1
  MIR: 124
  StrongCG: 24
  Zero half: 72
  Mod-K: 1
  RLT: 51

Explored 48 nodes (604639 simplex iterations) in 3600.30 seconds
Thread count was 1 (of 40 available processors)

Solution count 1: 1132 

Time limit reached
Best objective 1.132000000000e+03, best bound 6.180000000000e+02, gap 45.4064%

User-callback calls 37170, time in user-callback 0.11 sec
